homework/2/sat_in/task3/30.cnf
p cnf 102 2352
1 2 3 4 5 6 7 8 9 10 11 12 13 14 15 16 17 0
-1 -2 0
-1 -3 0
-1 -4 0
-1 -5 0
-1 -6 0
-1 -7 0
-1 -8 0
-1 -9 0
-1 -10 0
-1 -11 0
-1 -12 0
-1 -13 0
-1 -14 0
-1 -15 0
-1 -16 0
-1 -17 0
-2 -3 0
-2 -4 0
-2 -5 0
-2 -6 0
-2 -7 0
-2 -8 0
-2 -9 0
-2 -10 0
-2 -11 0
-2 -12 0
-2 -13 0
-2 -14 0
-2 -15 0
-2 -16 0
-2 -17 0
-3 -4 0
-3 -5 0
-3 -6 0
-3 -7 0
-3 -8 0
-3 -9 0
-3 -10 0
-3 -11 0
-3 -12 0
-3 -13 0
-3 -14 0
-3 -15 0
-3 -16 0
-3 -17 0
-4 -5 0
-4 -6 0
-4 -7 0
-4 -8 0
-4 -9 0
-4 -10 0
-4 -11 0
-4 -12 0
-4 -13 0
-4 -14 0
-4 -15 0
-4 -16 0
-4 -17 0
-5 -6 0
-5 -7 0
-5 -8 0
-5 -9 0
-5 -10 0
-5 -11 0
-5 -12 0
-5 -13 0
-5 -14 0
-5 -15 0
-5 -16 0
-5 -17 0
-6 -7 0
-6 -8 0
-6 -9 0
-6 -10 0
-6 -11 0
-6 -12 0
-6 -13 0
-6 -14 0
-6 -15 0
-6 -16 0
-6 -17 0
-7 -8 0
-7 -9 0
-7 -10 0
-7 -11 0
-7 -12 0
-7 -13 0
-7 -14 0
-7 -15 0
-7 -16 0
-7 -17 0
-8 -9 0
-8 -10 0
-8 -11 0
-8 -12 0
-8 -13 0
-8 -14 0
-8 -15 0
-8 -16 0
-8 -17 0
-9 -10 0
-9 -11 0
-9 -12 0
-9 -13 0
-9 -14 0
-9 -15 0
-9 -16 0
-9 -17 0
-10 -11 0
-10 -12 0
-10 -13 0
-10 -14 0
-10 -15 0
-10 -16 0
-10 -17 0
-11 -12 0
-11 -13 0
-11 -14 0
-11 -15 0
-11 -16 0
-11 -17 0
-12 -13 0
-12 -14 0
-12 -15 0
-12 -16 0
-12 -17 0
-13 -14 0
-13 -15 0
-13 -16 0
-13 -17 0
-14 -15 0
-14 -16 0
-14 -17 0
-15 -16 0
-15 -17 0
-16 -17 0
18 19 20 21 22 23 24 25 26 27 28 29 30 31 32 33 34 0
-18 -19 0
-18 -20 0
-18 -21 0
-18 -22 0
-18 -23 0
-18 -24 0
-18 -25 0
-18 -26 0
-18 -27 0
-18 -28 0
-18 -29 0
-18 -30 0
-18 -31 0
-18 -32 0
-18 -33 0
-18 -34 0
-19 -20 0
-19 -21 0
-19 -22 0
-19 -23 0
-19 -24 0
-19 -25 0
-19 -26 0
-19 -27 0
-19 -28 0
-19 -29 0
-19 -30 0
-19 -31 0
-19 -32 0
-19 -33 0
-19 -34 0
-20 -21 0
-20 -22 0
-20 -23 0
-20 -24 0
-20 -25 0
-20 -26 0
-20 -27 0
-20 -28 0
-20 -29 0
-20 -30 0
-20 -31 0
-20 -32 0
-20 -33 0
-20 -34 0
-21 -22 0
-21 -23 0
-21 -24 0
-21 -25 0
-21 -26 0
-21 -27 0
-21 -28 0
-21 -29 0
-21 -30 0
-21 -31 0
-21 -32 0
-21 -33 0
-21 -34 0
-22 -23 0
-22 -24 0
-22 -25 0
-22 -26 0
-22 -27 0
-22 -28 0
-22 -29 0
-22 -30 0
-22 -31 0
-22 -32 0
-22 -33 0
-22 -34 0
-23 -24 0
-23 -25 0
-23 -26 0
-23 -27 0
-23 -28 0
-23 -29 0
-23 -30 0
-23 -31 0
-23 -32 0
-23 -33 0
-23 -34 0
-24 -25 0
-24 -26 0
-24 -27 0
-24 -28 0
-24 -29 0
-24 -30 0
-24 -31 0
-24 -32 0
-24 -33 0
-24 -34 0
-25 -26 0
-25 -27 0
-25 -28 0
-25 -29 0
-25 -30 0
-25 -31 0
-25 -32 0
-25 -33 0
-25 -34 0
-26 -27 0
-26 -28 0
-26 -29 0
-26 -30 0
-26 -31 0
-26 -32 0
-26 -33 0
-26 -34 0
-27 -28 0
-27 -29 0
-27 -30 0
-27 -31 0
-27 -32 0
-27 -33 0
-27 -34 0
-28 -29 0
-28 -30 0
-28 -31 0
-28 -32 0
-28 -33 0
-28 -34 0
-29 -30 0
-29 -31 0
-29 -32 0
-29 -33 0
-29 -34 0
-30 -31 0
-30 -32 0
-30 -33 0
-30 -34 0
-31 -32 0
-31 -33 0
-31 -34 0
-32 -33 0
-32 -34 0
-33 -34 0
35 36 37 38 39 40 41 42 43 44 45 46 47 48 49 50 51 0
-35 -36 0
-35 -37 0
-35 -38 0
-35 -39 0
-35 -40 0
-35 -41 0
-35 -42 0
-35 -43 0
-35 -44 0
-35 -45 0
-35 -46 0
-35 -47 0
-35 -48 0
-35 -49 0
-35 -50 0
-35 -51 0
-36 -37 0
-36 -38 0
-36 -39 0
-36 -40 0
-36 -41 0
-36 -42 0
-36 -43 0
-36 -44 0
-36 -45 0
-36 -46 0
-36 -47 0
-36 -48 0
-36 -49 0
-36 -50 0
-36 -51 0
-37 -38 0
-37 -39 0
-37 -40 0
-37 -41 0
-37 -42 0
-37 -43 0
-37 -44 0
-37 -45 0
-37 -46 0
-37 -47 0
-37 -48 0
-37 -49 0
-37 -50 0
-37 -51 0
-38 -39 0
-38 -40 0
-38 -41 0
-38 -42 0
-38 -43 0
-38 -44 0
-38 -45 0
-38 -46 0
-38 -47 0
-38 -48 0
-38 -49 0
-38 -50 0
-38 -51 0
-39 -40 0
-39 -41 0
-39 -42 0
-39 -43 0
-39 -44 0
-39 -45 0
-39 -46 0
-39 -47 0
-39 -48 0
-39 -49 0
-39 -50 0
-39 -51 0
-40 -41 0
-40 -42 0
-40 -43 0
-40 -44 0
-40 -45 0
-40 -46 0
-40 -47 0
-40 -48 0
-40 -49 0
-40 -50 0
-40 -51 0
-41 -42 0
-41 -43 0
-41 -44 0
-41 -45 0
-41 -46 0
-41 -47 0
-41 -48 0
-41 -49 0
-41 -50 0
-41 -51 0
-42 -43 0
-42 -44 0
-42 -45 0
-42 -46 0
-42 -47 0
-42 -48 0
-42 -49 0
-42 -50 0
-42 -51 0
-43 -44 0
-43 -45 0
-43 -46 0
-43 -47 0
-43 -48 0
-43 -49 0
-43 -50 0
-43 -51 0
-44 -45 0
-44 -46 0
-44 -47 0
-44 -48 0
-44 -49 0
-44 -50 0
-44 -51 0
-45 -46 0
-45 -47 0
-45 -48 0
-45 -49 0
-45 -50 0
-45 -51 0
-46 -47 0
-46 -48 0
-46 -49 0
-46 -50 0
-46 -51 0
-47 -48 0
-47 -49 0
-47 -50 0
-47 -51 0
-48 -49 0
-48 -50 0
-48 -51 0
-49 -50 0
-49 -51 0
-50 -51 0
52 53 54 55 56 57 58 59 60 61 62 63 64 65 66 67 68 0
-52 -53 0
-52 -54 0
-52 -55 0
-52 -56 0
-52 -57 0
-52 -58 0
-52 -59 0
-52 -60 0
-52 -61 0
-52 -62 0
-52 -63 0
-52 -64 0
-52 -65 0
-52 -66 0
-52 -67 0
-52 -68 0
-53 -54 0
-53 -55 0
-53 -56 0
-53 -57 0
-53 -58 0
-53 -59 0
-53 -60 0
-53 -61 0
-53 -62 0
-53 -63 0
-53 -64 0
-53 -65 0
-53 -66 0
-53 -67 0
-53 -68 0
-54 -55 0
-54 -56 0
-54 -57 0
-54 -58 0
-54 -59 0
-54 -60 0
-54 -61 0
-54 -62 0
-54 -63 0
-54 -64 0
-54 -65 0
-54 -66 0
-54 -67 0
-54 -68 0
-55 -56 0
-55 -57 0
-55 -58 0
-55 -59 0
-55 -60 0
-55 -61 0
-55 -62 0
-55 -63 0
-55 -64 0
-55 -65 0
-55 -66 0
-55 -67 0
-55 -68 0
-56 -57 0
-56 -58 0
-56 -59 0
-56 -60 0
-56 -61 0
-56 -62 0
-56 -63 0
-56 -64 0
-56 -65 0
-56 -66 0
-56 -67 0
-56 -68 0
-57 -58 0
-57 -59 0
-57 -60 0
-57 -61 0
-57 -62 0
-57 -63 0
-57 -64 0
-57 -65 0
-57 -66 0
-57 -67 0
-57 -68 0
-58 -59 0
-58 -60 0
-58 -61 0
-58 -62 0
-58 -63 0
-58 -64 0
-58 -65 0
-58 -66 0
-58 -67 0
-58 -68 0
-59 -60 0
-59 -61 0
-59 -62 0
-59 -63 0
-59 -64 0
-59 -65 0
-59 -66 0
-59 -67 0
-59 -68 0
-60 -61 0
-60 -62 0
-60 -63 0
-60 -64 0
-60 -65 0
-60 -66 0
-60 -67 0
-60 -68 0
-61 -62 0
-61 -63 0
-61 -64 0
-61 -65 0
-61 -66 0
-61 -67 0
-61 -68 0
-62 -63 0
-62 -64 0
-62 -65 0
-62 -66 0
-62 -67 0
-62 -68 0
-63 -64 0
-63 -65 0
-63 -66 0
-63 -67 0
-63 -68 0
-64 -65 0
-64 -66 0
-64 -67 0
-64 -68 0
-65 -66 0
-65 -67 0
-65 -68 0
-66 -67 0
-66 -68 0
-67 -68 0
69 70 71 72 73 74 75 76 77 78 79 80 81 82 83 84 85 0
-69 -70 0
-69 -71 0
-69 -72 0
-69 -73 0
-69 -74 0
-69 -75 0
-69 -76 0
-69 -77 0
-69 -78 0
-69 -79 0
-69 -80 0
-69 -81 0
-69 -82 0
-69 -83 0
-69 -84 0
-69 -85 0
-70 -71 0
-70 -72 0
-70 -73 0
-70 -74 0
-70 -75 0
-70 -76 0
-70 -77 0
-70 -78 0
-70 -79 0
-70 -80 0
-70 -81 0
-70 -82 0
-70 -83 0
-70 -84 0
-70 -85 0
-71 -72 0
-71 -73 0
-71 -74 0
-71 -75 0
-71 -76 0
-71 -77 0
-71 -78 0
-71 -79 0
-71 -80 0
-71 -81 0
-71 -82 0
-71 -83 0
-71 -84 0
-71 -85 0
-72 -73 0
-72 -74 0
-72 -75 0
-72 -76 0
-72 -77 0
-72 -78 0
-72 -79 0
-72 -80 0
-72 -81 0
-72 -82 0
-72 -83 0
-72 -84 0
-72 -85 0
-73 -74 0
-73 -75 0
-73 -76 0
-73 -77 0
-73 -78 0
-73 -79 0
-73 -80 0
-73 -81 0
-73 -82 0
-73 -83 0
-73 -84 0
-73 -85 0
-74 -75 0
-74 -76 0
-74 -77 0
-74 -78 0
-74 -79 0
-74 -80 0
-74 -81 0
-74 -82 0
-74 -83 0
-74 -84 0
-74 -85 0
-75 -76 0
-75 -77 0
-75 -78 0
-75 -79 0
-75 -80 0
-75 -81 0
-75 -82 0
-75 -83 0
-75 -84 0
-75 -85 0
-76 -77 0
-76 -78 0
-76 -79 0
-76 -80 0
-76 -81 0
-76 -82 0
-76 -83 0
-76 -84 0
-76 -85 0
-77 -78 0
-77 -79 0
-77 -80 0
-77 -81 0
-77 -82 0
-77 -83 0
-77 -84 0
-77 -85 0
-78 -79 0
-78 -80 0
-78 -81 0
-78 -82 0
-78 -83 0
-78 -84 0
-78 -85 0
-79 -80 0
-79 -81 0
-79 -82 0
-79 -83 0
-79 -84 0
-79 -85 0
-80 -81 0
-80 -82 0
-80 -83 0
-80 -84 0
-80 -85 0
-81 -82 0
-81 -83 0
-81 -84 0
-81 -85 0
-82 -83 0
-82 -84 0
-82 -85 0
-83 -84 0
-83 -85 0
-84 -85 0
86 87 88 89 90 91 92 93 94 95 96 97 98 99 100 101 102 0
-86 -87 0
-86 -88 0
-86 -89 0
-86 -90 0
-86 -91 0
-86 -92 0
-86 -93 0
-86 -94 0
-86 -95 0
-86 -96 0
-86 -97 0
-86 -98 0
-86 -99 0
-86 -100 0
-86 -101 0
-86 -102 0
-87 -88 0
-87 -89 0
-87 -90 0
-87 -91 0
-87 -92 0
-87 -93 0
-87 -94 0
-87 -95 0
-87 -96 0
-87 -97 0
-87 -98 0
-87 -99 0
-87 -100 0
-87 -101 0
-87 -102 0
-88 -89 0
-88 -90 0
-88 -91 0
-88 -92 0
-88 -93 0
-88 -94 0
-88 -95 0
-88 -96 0
-88 -97 0
-88 -98 0
-88 -99 0
-88 -100 0
-88 -101 0
-88 -102 0
-89 -90 0
-89 -91 0
-89 -92 0
-89 -93 0
-89 -94 0
-89 -95 0
-89 -96 0
-89 -97 0
-89 -98 0
-89 -99 0
-89 -100 0
-89 -101 0
-89 -102 0
-90 -91 0
-90 -92 0
-90 -93 0
-90 -94 0
-90 -95 0
-90 -96 0
-90 -97 0
-90 -98 0
-90 -99 0
-90 -100 0
-90 -101 0
-90 -102 0
-91 -92 0
-91 -93 0
-91 -94 0
-91 -95 0
-91 -96 0
-91 -97 0
-91 -98 0
-91 -99 0
-91 -100 0
-91 -101 0
-91 -102 0
-92 -93 0
-92 -94 0
-92 -95 0
-92 -96 0
-92 -97 0
-92 -98 0
-92 -99 0
-92 -100 0
-92 -101 0
-92 -102 0
-93 -94 0
-93 -95 0
-93 -96 0
-93 -97 0
-93 -98 0
-93 -99 0
-93 -100 0
-93 -101 0
-93 -102 0
-94 -95 0
-94 -96 0
-94 -97 0
-94 -98 0
-94 -99 0
-94 -100 0
-94 -101 0
-94 -102 0
-95 -96 0
-95 -97 0
-95 -98 0
-95 -99 0
-95 -100 0
-95 -101 0
-95 -102 0
-96 -97 0
-96 -98 0
-96 -99 0
-96 -100 0
-96 -101 0
-96 -102 0
-97 -98 0
-97 -99 0
-97 -100 0
-97 -101 0
-97 -102 0
-98 -99 0
-98 -100 0
-98 -101 0
-98 -102 0
-99 -100 0
-99 -101 0
-99 -102 0
-100 -101 0
-100 -102 0
-101 -102 0
-1 -18 0
-1 -35 0
-1 -52 0
-1 -69 0
-1 -86 0
-18 -35 0
-18 -52 0
-18 -69 0
-18 -86 0
-35 -52 0
-35 -69 0
-35 -86 0
-52 -69 0
-52 -86 0
-69 -86 0
-2 -19 0
-2 -36 0
-2 -53 0
-2 -70 0
-2 -87 0
-19 -36 0
-19 -53 0
-19 -70 0
-19 -87 0
-36 -53 0
-36 -70 0
-36 -87 0
-53 -70 0
-53 -87 0
-70 -87 0
-3 -20 0
-3 -37 0
-3 -54 0
-3 -71 0
-3 -88 0
-20 -37 0
-20 -54 0
-20 -71 0
-20 -88 0
-37 -54 0
-37 -71 0
-37 -88 0
-54 -71 0
-54 -88 0
-71 -88 0
-4 -21 0
-4 -38 0
-4 -55 0
-4 -72 0
-4 -89 0
-21 -38 0
-21 -55 0
-21 -72 0
-21 -89 0
-38 -55 0
-38 -72 0
-38 -89 0
-55 -72 0
-55 -89 0
-72 -89 0
-5 -22 0
-5 -39 0
-5 -56 0
-5 -73 0
-5 -90 0
-22 -39 0
-22 -56 0
-22 -73 0
-22 -90 0
-39 -56 0
-39 -73 0
-39 -90 0
-56 -73 0
-56 -90 0
-73 -90 0
-6 -23 0
-6 -40 0
-6 -57 0
-6 -74 0
-6 -91 0
-23 -40 0
-23 -57 0
-23 -74 0
-23 -91 0
-40 -57 0
-40 -74 0
-40 -91 0
-57 -74 0
-57 -91 0
-74 -91 0
-7 -24 0
-7 -41 0
-7 -58 0
-7 -75 0
-7 -92 0
-24 -41 0
-24 -58 0
-24 -75 0
-24 -92 0
-41 -58 0
-41 -75 0
-41 -92 0
-58 -75 0
-58 -92 0
-75 -92 0
-8 -25 0
-8 -42 0
-8 -59 0
-8 -76 0
-8 -93 0
-25 -42 0
-25 -59 0
-25 -76 0
-25 -93 0
-42 -59 0
-42 -76 0
-42 -93 0
-59 -76 0
-59 -93 0
-76 -93 0
-9 -26 0
-9 -43 0
-9 -60 0
-9 -77 0
-9 -94 0
-26 -43 0
-26 -60 0
-26 -77 0
-26 -94 0
-43 -60 0
-43 -77 0
-43 -94 0
-60 -77 0
-60 -94 0
-77 -94 0
-10 -27 0
-10 -44 0
-10 -61 0
-10 -78 0
-10 -95 0
-27 -44 0
-27 -61 0
-27 -78 0
-27 -95 0
-44 -61 0
-44 -78 0
-44 -95 0
-61 -78 0
-61 -95 0
-78 -95 0
-11 -28 0
-11 -45 0
-11 -62 0
-11 -79 0
-11 -96 0
-28 -45 0
-28 -62 0
-28 -79 0
-28 -96 0
-45 -62 0
-45 -79 0
-45 -96 0
-62 -79 0
-62 -96 0
-79 -96 0
-12 -29 0
-12 -46 0
-12 -63 0
-12 -80 0
-12 -97 0
-29 -46 0
-29 -63 0
-29 -80 0
-29 -97 0
-46 -63 0
-46 -80 0
-46 -97 0
-63 -80 0
-63 -97 0
-80 -97 0
-13 -30 0
-13 -47 0
-13 -64 0
-13 -81 0
-13 -98 0
-30 -47 0
-30 -64 0
-30 -81 0
-30 -98 0
-47 -64 0
-47 -81 0
-47 -98 0
-64 -81 0
-64 -98 0
-81 -98 0
-14 -31 0
-14 -48 0
-14 -65 0
-14 -82 0
-14 -99 0
-31 -48 0
-31 -65 0
-31 -82 0
-31 -99 0
-48 -65 0
-48 -82 0
-48 -99 0
-65 -82 0
-65 -99 0
-82 -99 0
-15 -32 0
-15 -49 0
-15 -66 0
-15 -83 0
-15 -100 0
-32 -49 0
-32 -66 0
-32 -83 0
-32 -100 0
-49 -66 0
-49 -83 0
-49 -100 0
-66 -83 0
-66 -100 0
-83 -100 0
-16 -33 0
-16 -50 0
-16 -67 0
-16 -84 0
-16 -101 0
-33 -50 0
-33 -67 0
-33 -84 0
-33 -101 0
-50 -67 0
-50 -84 0
-50 -101 0
-67 -84 0
-67 -101 0
-84 -101 0
-17 -34 0
-17 -51 0
-17 -68 0
-17 -85 0
-17 -102 0
-34 -51 0
-34 -68 0
-34 -85 0
-34 -102 0
-51 -68 0
-51 -85 0
-51 -102 0
-68 -85 0
-68 -102 0
-85 -102 0
-1 -19 0
-18 -2 0
-1 -36 0
-35 -2 0
-1 -53 0
-52 -2 0
-1 -70 0
-69 -2 0
-1 -87 0
-86 -2 0
-18 -36 0
-35 -19 0
-18 -53 0
-52 -19 0
-18 -70 0
-69 -19 0
-18 -87 0
-86 -19 0
-35 -53 0
-52 -36 0
-35 -70 0
-69 -36 0
-35 -87 0
-86 -36 0
-52 -70 0
-69 -53 0
-52 -87 0
-86 -53 0
-69 -87 0
-86 -70 0
-1 -22 0
-18 -5 0
-1 -39 0
-35 -5 0
-1 -56 0
-52 -5 0
-1 -73 0
-69 -5 0
-1 -90 0
-86 -5 0
-18 -39 0
-35 -22 0
-18 -56 0
-52 -22 0
-18 -73 0
-69 -22 0
-18 -90 0
-86 -22 0
-35 -56 0
-52 -39 0
-35 -73 0
-69 -39 0
-35 -90 0
-86 -39 0
-52 -73 0
-69 -56 0
-52 -90 0
-86 -56 0
-69 -90 0
-86 -73 0
-1 -23 0
-18 -6 0
-1 -40 0
-35 -6 0
-1 -57 0
-52 -6 0
-1 -74 0
-69 -6 0
-1 -91 0
-86 -6 0
-18 -40 0
-35 -23 0
-18 -57 0
-52 -23 0
-18 -74 0
-69 -23 0
-18 -91 0
-86 -23 0
-35 -57 0
-52 -40 0
-35 -74 0
-69 -40 0
-35 -91 0
-86 -40 0
-52 -74 0
-69 -57 0
-52 -91 0
-86 -57 0
-69 -91 0
-86 -74 0
-1 -24 0
-18 -7 0
-1 -41 0
-35 -7 0
-1 -58 0
-52 -7 0
-1 -75 0
-69 -7 0
-1 -92 0
-86 -7 0
-18 -41 0
-35 -24 0
-18 -58 0
-52 -24 0
-18 -75 0
-69 -24 0
-18 -92 0
-86 -24 0
-35 -58 0
-52 -41 0
-35 -75 0
-69 -41 0
-35 -92 0
-86 -41 0
-52 -75 0
-69 -58 0
-52 -92 0
-86 -58 0
-69 -92 0
-86 -75 0
-1 -33 0
-18 -16 0
-1 -50 0
-35 -16 0
-1 -67 0
-52 -16 0
-1 -84 0
-69 -16 0
-1 -101 0
-86 -16 0
-18 -50 0
-35 -33 0
-18 -67 0
-52 -33 0
-18 -84 0
-69 -33 0
-18 -101 0
-86 -33 0
-35 -67 0
-52 -50 0
-35 -84 0
-69 -50 0
-35 -101 0
-86 -50 0
-52 -84 0
-69 -67 0
-52 -101 0
-86 -67 0
-69 -101 0
-86 -84 0
-1 -34 0
-18 -17 0
-1 -51 0
-35 -17 0
-1 -68 0
-52 -17 0
-1 -85 0
-69 -17 0
-1 -102 0
-86 -17 0
-18 -51 0
-35 -34 0
-18 -68 0
-52 -34 0
-18 -85 0
-69 -34 0
-18 -102 0
-86 -34 0
-35 -68 0
-52 -51 0
-35 -85 0
-69 -51 0
-35 -102 0
-86 -51 0
-52 -85 0
-69 -68 0
-52 -102 0
-86 -68 0
-69 -102 0
-86 -85 0
-2 -21 0
-19 -4 0
-2 -38 0
-36 -4 0
-2 -55 0
-53 -4 0
-2 -72 0
-70 -4 0
-2 -89 0
-87 -4 0
-19 -38 0
-36 -21 0
-19 -55 0
-53 -21 0
-19 -72 0
-70 -21 0
-19 -89 0
-87 -21 0
-36 -55 0
-53 -38 0
-36 -72 0
-70 -38 0
-36 -89 0
-87 -38 0
-53 -72 0
-70 -55 0
-53 -89 0
-87 -55 0
-70 -89 0
-87 -72 0
-2 -25 0
-19 -8 0
-2 -42 0
-36 -8 0
-2 -59 0
-53 -8 0
-2 -76 0
-70 -8 0
-2 -93 0
-87 -8 0
-19 -42 0
-36 -25 0
-19 -59 0
-53 -25 0
-19 -76 0
-70 -25 0
-19 -93 0
-87 -25 0
-36 -59 0
-53 -42 0
-36 -76 0
-70 -42 0
-36 -93 0
-87 -42 0
-53 -76 0
-70 -59 0
-53 -93 0
-87 -59 0
-70 -93 0
-87 -76 0
-2 -26 0
-19 -9 0
-2 -43 0
-36 -9 0
-2 -60 0
-53 -9 0
-2 -77 0
-70 -9 0
-2 -94 0
-87 -9 0
-19 -43 0
-36 -26 0
-19 -60 0
-53 -26 0
-19 -77 0
-70 -26 0
-19 -94 0
-87 -26 0
-36 -60 0
-53 -43 0
-36 -77 0
-70 -43 0
-36 -94 0
-87 -43 0
-53 -77 0
-70 -60 0
-53 -94 0
-87 -60 0
-70 -94 0
-87 -77 0
-2 -28 0
-19 -11 0
-2 -45 0
-36 -11 0
-2 -62 0
-53 -11 0
-2 -79 0
-70 -11 0
-2 -96 0
-87 -11 0
-19 -45 0
-36 -28 0
-19 -62 0
-53 -28 0
-19 -79 0
-70 -28 0
-19 -96 0
-87 -28 0
-36 -62 0
-53 -45 0
-36 -79 0
-70 -45 0
-36 -96 0
-87 -45 0
-53 -79 0
-70 -62 0
-53 -96 0
-87 -62 0
-70 -96 0
-87 -79 0
-2 -30 0
-19 -13 0
-2 -47 0
-36 -13 0
-2 -64 0
-53 -13 0
-2 -81 0
-70 -13 0
-2 -98 0
-87 -13 0
-19 -47 0
-36 -30 0
-19 -64 0
-53 -30 0
-19 -81 0
-70 -30 0
-19 -98 0
-87 -30 0
-36 -64 0
-53 -47 0
-36 -81 0
-70 -47 0
-36 -98 0
-87 -47 0
-53 -81 0
-70 -64 0
-53 -98 0
-87 -64 0
-70 -98 0
-87 -81 0
-2 -33 0
-19 -16 0
-2 -50 0
-36 -16 0
-2 -67 0
-53 -16 0
-2 -84 0
-70 -16 0
-2 -101 0
-87 -16 0
-19 -50 0
-36 -33 0
-19 -67 0
-53 -33 0
-19 -84 0
-70 -33 0
-19 -101 0
-87 -33 0
-36 -67 0
-53 -50 0
-36 -84 0
-70 -50 0
-36 -101 0
-87 -50 0
-53 -84 0
-70 -67 0
-53 -101 0
-87 -67 0
-70 -101 0
-87 -84 0
-3 -21 0
-20 -4 0
-3 -38 0
-37 -4 0
-3 -55 0
-54 -4 0
-3 -72 0
-71 -4 0
-3 -89 0
-88 -4 0
-20 -38 0
-37 -21 0
-20 -55 0
-54 -21 0
-20 -72 0
-71 -21 0
-20 -89 0
-88 -21 0
-37 -55 0
-54 -38 0
-37 -72 0
-71 -38 0
-37 -89 0
-88 -38 0
-54 -72 0
-71 -55 0
-54 -89 0
-88 -55 0
-71 -89 0
-88 -72 0
-3 -23 0
-20 -6 0
-3 -40 0
-37 -6 0
-3 -57 0
-54 -6 0
-3 -74 0
-71 -6 0
-3 -91 0
-88 -6 0
-20 -40 0
-37 -23 0
-20 -57 0
-54 -23 0
-20 -74 0
-71 -23 0
-20 -91 0
-88 -23 0
-37 -57 0
-54 -40 0
-37 -74 0
-71 -40 0
-37 -91 0
-88 -40 0
-54 -74 0
-71 -57 0
-54 -91 0
-88 -57 0
-71 -91 0
-88 -74 0
-3 -27 0
-20 -10 0
-3 -44 0
-37 -10 0
-3 -61 0
-54 -10 0
-3 -78 0
-71 -10 0
-3 -95 0
-88 -10 0
-20 -44 0
-37 -27 0
-20 -61 0
-54 -27 0
-20 -78 0
-71 -27 0
-20 -95 0
-88 -27 0
-37 -61 0
-54 -44 0
-37 -78 0
-71 -44 0
-37 -95 0
-88 -44 0
-54 -78 0
-71 -61 0
-54 -95 0
-88 -61 0
-71 -95 0
-88 -78 0
-3 -32 0
-20 -15 0
-3 -49 0
-37 -15 0
-3 -66 0
-54 -15 0
-3 -83 0
-71 -15 0
-3 -100 0
-88 -15 0
-20 -49 0
-37 -32 0
-20 -66 0
-54 -32 0
-20 -83 0
-71 -32 0
-20 -100 0
-88 -32 0
-37 -66 0
-54 -49 0
-37 -83 0
-71 -49 0
-37 -100 0
-88 -49 0
-54 -83 0
-71 -66 0
-54 -100 0
-88 -66 0
-71 -100 0
-88 -83 0
-3 -33 0
-20 -16 0
-3 -50 0
-37 -16 0
-3 -67 0
-54 -16 0
-3 -84 0
-71 -16 0
-3 -101 0
-88 -16 0
-20 -50 0
-37 -33 0
-20 -67 0
-54 -33 0
-20 -84 0
-71 -33 0
-20 -101 0
-88 -33 0
-37 -67 0
-54 -50 0
-37 -84 0
-71 -50 0
-37 -101 0
-88 -50 0
-54 -84 0
-71 -67 0
-54 -101 0
-88 -67 0
-71 -101 0
-88 -84 0
-3 -34 0
-20 -17 0
-3 -51 0
-37 -17 0
-3 -68 0
-54 -17 0
-3 -85 0
-71 -17 0
-3 -102 0
-88 -17 0
-20 -51 0
-37 -34 0
-20 -68 0
-54 -34 0
-20 -85 0
-71 -34 0
-20 -102 0
-88 -34 0
-37 -68 0
-54 -51 0
-37 -85 0
-71 -51 0
-37 -102 0
-88 -51 0
-54 -85 0
-71 -68 0
-54 -102 0
-88 -68 0
-71 -102 0
-88 -85 0
-4 -23 0
-21 -6 0
-4 -40 0
-38 -6 0
-4 -57 0
-55 -6 0
-4 -74 0
-72 -6 0
-4 -91 0
-89 -6 0
-21 -40 0
-38 -23 0
-21 -57 0
-55 -23 0
-21 -74 0
-72 -23 0
-21 -91 0
-89 -23 0
-38 -57 0
-55 -40 0
-38 -74 0
-72 -40 0
-38 -91 0
-89 -40 0
-55 -74 0
-72 -57 0
-55 -91 0
-89 -57 0
-72 -91 0
-89 -74 0
-4 -26 0
-21 -9 0
-4 -43 0
-38 -9 0
-4 -60 0
-55 -9 0
-4 -77 0
-72 -9 0
-4 -94 0
-89 -9 0
-21 -43 0
-38 -26 0
-21 -60 0
-55 -26 0
-21 -77 0
-72 -26 0
-21 -94 0
-89 -26 0
-38 -60 0
-55 -43 0
-38 -77 0
-72 -43 0
-38 -94 0
-89 -43 0
-55 -77 0
-72 -60 0
-55 -94 0
-89 -60 0
-72 -94 0
-89 -77 0
-4 -29 0
-21 -12 0
-4 -46 0
-38 -12 0
-4 -63 0
-55 -12 0
-4 -80 0
-72 -12 0
-4 -97 0
-89 -12 0
-21 -46 0
-38 -29 0
-21 -63 0
-55 -29 0
-21 -80 0
-72 -29 0
-21 -97 0
-89 -29 0
-38 -63 0
-55 -46 0
-38 -80 0
-72 -46 0
-38 -97 0
-89 -46 0
-55 -80 0
-72 -63 0
-55 -97 0
-89 -63 0
-72 -97 0
-89 -80 0
-4 -31 0
-21 -14 0
-4 -48 0
-38 -14 0
-4 -65 0
-55 -14 0
-4 -82 0
-72 -14 0
-4 -99 0
-89 -14 0
-21 -48 0
-38 -31 0
-21 -65 0
-55 -31 0
-21 -82 0
-72 -31 0
-21 -99 0
-89 -31 0
-38 -65 0
-55 -48 0
-38 -82 0
-72 -48 0
-38 -99 0
-89 -48 0
-55 -82 0
-72 -65 0
-55 -99 0
-89 -65 0
-72 -99 0
-89 -82 0
-5 -23 0
-22 -6 0
-5 -40 0
-39 -6 0
-5 -57 0
-56 -6 0
-5 -74 0
-73 -6 0
-5 -91 0
-90 -6 0
-22 -40 0
-39 -23 0
-22 -57 0
-56 -23 0
-22 -74 0
-73 -23 0
-22 -91 0
-90 -23 0
-39 -57 0
-56 -40 0
-39 -74 0
-73 -40 0
-39 -91 0
-90 -40 0
-56 -74 0
-73 -57 0
-56 -91 0
-90 -57 0
-73 -91 0
-90 -74 0
-5 -26 0
-22 -9 0
-5 -43 0
-39 -9 0
-5 -60 0
-56 -9 0
-5 -77 0
-73 -9 0
-5 -94 0
-90 -9 0
-22 -43 0
-39 -26 0
-22 -60 0
-56 -26 0
-22 -77 0
-73 -26 0
-22 -94 0
-90 -26 0
-39 -60 0
-56 -43 0
-39 -77 0
-73 -43 0
-39 -94 0
-90 -43 0
-56 -77 0
-73 -60 0
-56 -94 0
-90 -60 0
-73 -94 0
-90 -77 0
-5 -27 0
-22 -10 0
-5 -44 0
-39 -10 0
-5 -61 0
-56 -10 0
-5 -78 0
-73 -10 0
-5 -95 0
-90 -10 0
-22 -44 0
-39 -27 0
-22 -61 0
-56 -27 0
-22 -78 0
-73 -27 0
-22 -95 0
-90 -27 0
-39 -61 0
-56 -44 0
-39 -78 0
-73 -44 0
-39 -95 0
-90 -44 0
-56 -78 0
-73 -61 0
-56 -95 0
-90 -61 0
-73 -95 0
-90 -78 0
-5 -30 0
-22 -13 0
-5 -47 0
-39 -13 0
-5 -64 0
-56 -13 0
-5 -81 0
-73 -13 0
-5 -98 0
-90 -13 0
-22 -47 0
-39 -30 0
-22 -64 0
-56 -30 0
-22 -81 0
-73 -30 0
-22 -98 0
-90 -30 0
-39 -64 0
-56 -47 0
-39 -81 0
-73 -47 0
-39 -98 0
-90 -47 0
-56 -81 0
-73 -64 0
-56 -98 0
-90 -64 0
-73 -98 0
-90 -81 0
-5 -32 0
-22 -15 0
-5 -49 0
-39 -15 0
-5 -66 0
-56 -15 0
-5 -83 0
-73 -15 0
-5 -100 0
-90 -15 0
-22 -49 0
-39 -32 0
-22 -66 0
-56 -32 0
-22 -83 0
-73 -32 0
-22 -100 0
-90 -32 0
-39 -66 0
-56 -49 0
-39 -83 0
-73 -49 0
-39 -100 0
-90 -49 0
-56 -83 0
-73 -66 0
-56 -100 0
-90 -66 0
-73 -100 0
-90 -83 0
-5 -33 0
-22 -16 0
-5 -50 0
-39 -16 0
-5 -67 0
-56 -16 0
-5 -84 0
-73 -16 0
-5 -101 0
-90 -16 0
-22 -50 0
-39 -33 0
-22 -67 0
-56 -33 0
-22 -84 0
-73 -33 0
-22 -101 0
-90 -33 0
-39 -67 0
-56 -50 0
-39 -84 0
-73 -50 0
-39 -101 0
-90 -50 0
-56 -84 0
-73 -67 0
-56 -101 0
-90 -67 0
-73 -101 0
-90 -84 0
-5 -34 0
-22 -17 0
-5 -51 0
-39 -17 0
-5 -68 0
-56 -17 0
-5 -85 0
-73 -17 0
-5 -102 0
-90 -17 0
-22 -51 0
-39 -34 0
-22 -68 0
-56 -34 0
-22 -85 0
-73 -34 0
-22 -102 0
-90 -34 0
-39 -68 0
-56 -51 0
-39 -85 0
-73 -51 0
-39 -102 0
-90 -51 0
-56 -85 0
-73 -68 0
-56 -102 0
-90 -68 0
-73 -102 0
-90 -85 0
-6 -24 0
-23 -7 0
-6 -41 0
-40 -7 0
-6 -58 0
-57 -7 0
-6 -75 0
-74 -7 0
-6 -92 0
-91 -7 0
-23 -41 0
-40 -24 0
-23 -58 0
-57 -24 0
-23 -75 0
-74 -24 0
-23 -92 0
-91 -24 0
-40 -58 0
-57 -41 0
-40 -75 0
-74 -41 0
-40 -92 0
-91 -41 0
-57 -75 0
-74 -58 0
-57 -92 0
-91 -58 0
-74 -92 0
-91 -75 0
-6 -26 0
-23 -9 0
-6 -43 0
-40 -9 0
-6 -60 0
-57 -9 0
-6 -77 0
-74 -9 0
-6 -94 0
-91 -9 0
-23 -43 0
-40 -26 0
-23 -60 0
-57 -26 0
-23 -77 0
-74 -26 0
-23 -94 0
-91 -26 0
-40 -60 0
-57 -43 0
-40 -77 0
-74 -43 0
-40 -94 0
-91 -43 0
-57 -77 0
-74 -60 0
-57 -94 0
-91 -60 0
-74 -94 0
-91 -77 0
-6 -29 0
-23 -12 0
-6 -46 0
-40 -12 0
-6 -63 0
-57 -12 0
-6 -80 0
-74 -12 0
-6 -97 0
-91 -12 0
-23 -46 0
-40 -29 0
-23 -63 0
-57 -29 0
-23 -80 0
-74 -29 0
-23 -97 0
-91 -29 0
-40 -63 0
-57 -46 0
-40 -80 0
-74 -46 0
-40 -97 0
-91 -46 0
-57 -80 0
-74 -63 0
-57 -97 0
-91 -63 0
-74 -97 0
-91 -80 0
-7 -30 0
-24 -13 0
-7 -47 0
-41 -13 0
-7 -64 0
-58 -13 0
-7 -81 0
-75 -13 0
-7 -98 0
-92 -13 0
-24 -47 0
-41 -30 0
-24 -64 0
-58 -30 0
-24 -81 0
-75 -30 0
-24 -98 0
-92 -30 0
-41 -64 0
-58 -47 0
-41 -81 0
-75 -47 0
-41 -98 0
-92 -47 0
-58 -81 0
-75 -64 0
-58 -98 0
-92 -64 0
-75 -98 0
-92 -81 0
-7 -33 0
-24 -16 0
-7 -50 0
-41 -16 0
-7 -67 0
-58 -16 0
-7 -84 0
-75 -16 0
-7 -101 0
-92 -16 0
-24 -50 0
-41 -33 0
-24 -67 0
-58 -33 0
-24 -84 0
-75 -33 0
-24 -101 0
-92 -33 0
-41 -67 0
-58 -50 0
-41 -84 0
-75 -50 0
-41 -101 0
-92 -50 0
-58 -84 0
-75 -67 0
-58 -101 0
-92 -67 0
-75 -101 0
-92 -84 0
-8 -27 0
-25 -10 0
-8 -44 0
-42 -10 0
-8 -61 0
-59 -10 0
-8 -78 0
-76 -10 0
-8 -95 0
-93 -10 0
-25 -44 0
-42 -27 0
-25 -61 0
-59 -27 0
-25 -78 0
-76 -27 0
-25 -95 0
-93 -27 0
-42 -61 0
-59 -44 0
-42 -78 0
-76 -44 0
-42 -95 0
-93 -44 0
-59 -78 0
-76 -61 0
-59 -95 0
-93 -61 0
-76 -95 0
-93 -78 0
-8 -29 0
-25 -12 0
-8 -46 0
-42 -12 0
-8 -63 0
-59 -12 0
-8 -80 0
-76 -12 0
-8 -97 0
-93 -12 0
-25 -46 0
-42 -29 0
-25 -63 0
-59 -29 0
-25 -80 0
-76 -29 0
-25 -97 0
-93 -29 0
-42 -63 0
-59 -46 0
-42 -80 0
-76 -46 0
-42 -97 0
-93 -46 0
-59 -80 0
-76 -63 0
-59 -97 0
-93 -63 0
-76 -97 0
-93 -80 0
-8 -31 0
-25 -14 0
-8 -48 0
-42 -14 0
-8 -65 0
-59 -14 0
-8 -82 0
-76 -14 0
-8 -99 0
-93 -14 0
-25 -48 0
-42 -31 0
-25 -65 0
-59 -31 0
-25 -82 0
-76 -31 0
-25 -99 0
-93 -31 0
-42 -65 0
-59 -48 0
-42 -82 0
-76 -48 0
-42 -99 0
-93 -48 0
-59 -82 0
-76 -65 0
-59 -99 0
-93 -65 0
-76 -99 0
-93 -82 0
-8 -32 0
-25 -15 0
-8 -49 0
-42 -15 0
-8 -66 0
-59 -15 0
-8 -83 0
-76 -15 0
-8 -100 0
-93 -15 0
-25 -49 0
-42 -32 0
-25 -66 0
-59 -32 0
-25 -83 0
-76 -32 0
-25 -100 0
-93 -32 0
-42 -66 0
-59 -49 0
-42 -83 0
-76 -49 0
-42 -100 0
-93 -49 0
-59 -83 0
-76 -66 0
-59 -100 0
-93 -66 0
-76 -100 0
-93 -83 0
-8 -33 0
-25 -16 0
-8 -50 0
-42 -16 0
-8 -67 0
-59 -16 0
-8 -84 0
-76 -16 0
-8 -101 0
-93 -16 0
-25 -50 0
-42 -33 0
-25 -67 0
-59 -33 0
-25 -84 0
-76 -33 0
-25 -101 0
-93 -33 0
-42 -67 0
-59 -50 0
-42 -84 0
-76 -50 0
-42 -101 0
-93 -50 0
-59 -84 0
-76 -67 0
-59 -101 0
-93 -67 0
-76 -101 0
-93 -84 0
-9 -34 0
-26 -17 0
-9 -51 0
-43 -17 0
-9 -68 0
-60 -17 0
-9 -85 0
-77 -17 0
-9 -102 0
-94 -17 0
-26 -51 0
-43 -34 0
-26 -68 0
-60 -34 0
-26 -85 0
-77 -34 0
-26 -102 0
-94 -34 0
-43 -68 0
-60 -51 0
-43 -85 0
-77 -51 0
-43 -102 0
-94 -51 0
-60 -85 0
-77 -68 0
-60 -102 0
-94 -68 0
-77 -102 0
-94 -85 0
-10 -28 0
-27 -11 0
-10 -45 0
-44 -11 0
-10 -62 0
-61 -11 0
-10 -79 0
-78 -11 0
-10 -96 0
-95 -11 0
-27 -45 0
-44 -28 0
-27 -62 0
-61 -28 0
-27 -79 0
-78 -28 0
-27 -96 0
-95 -28 0
-44 -62 0
-61 -45 0
-44 -79 0
-78 -45 0
-44 -96 0
-95 -45 0
-61 -79 0
-78 -62 0
-61 -96 0
-95 -62 0
-78 -96 0
-95 -79 0
-10 -29 0
-27 -12 0
-10 -46 0
-44 -12 0
-10 -63 0
-61 -12 0
-10 -80 0
-78 -12 0
-10 -97 0
-95 -12 0
-27 -46 0
-44 -29 0
-27 -63 0
-61 -29 0
-27 -80 0
-78 -29 0
-27 -97 0
-95 -29 0
-44 -63 0
-61 -46 0
-44 -80 0
-78 -46 0
-44 -97 0
-95 -46 0
-61 -80 0
-78 -63 0
-61 -97 0
-95 -63 0
-78 -97 0
-95 -80 0
-10 -31 0
-27 -14 0
-10 -48 0
-44 -14 0
-10 -65 0
-61 -14 0
-10 -82 0
-78 -14 0
-10 -99 0
-95 -14 0
-27 -48 0
-44 -31 0
-27 -65 0
-61 -31 0
-27 -82 0
-78 -31 0
-27 -99 0
-95 -31 0
-44 -65 0
-61 -48 0
-44 -82 0
-78 -48 0
-44 -99 0
-95 -48 0
-61 -82 0
-78 -65 0
-61 -99 0
-95 -65 0
-78 -99 0
-95 -82 0
-10 -33 0
-27 -16 0
-10 -50 0
-44 -16 0
-10 -67 0
-61 -16 0
-10 -84 0
-78 -16 0
-10 -101 0
-95 -16 0
-27 -50 0
-44 -33 0
-27 -67 0
-61 -33 0
-27 -84 0
-78 -33 0
-27 -101 0
-95 -33 0
-44 -67 0
-61 -50 0
-44 -84 0
-78 -50 0
-44 -101 0
-95 -50 0
-61 -84 0
-78 -67 0
-61 -101 0
-95 -67 0
-78 -101 0
-95 -84 0
-10 -34 0
-27 -17 0
-10 -51 0
-44 -17 0
-10 -68 0
-61 -17 0
-10 -85 0
-78 -17 0
-10 -102 0
-95 -17 0
-27 -51 0
-44 -34 0
-27 -68 0
-61 -34 0
-27 -85 0
-78 -34 0
-27 -102 0
-95 -34 0
-44 -68 0
-61 -51 0
-44 -85 0
-78 -51 0
-44 -102 0
-95 -51 0
-61 -85 0
-78 -68 0
-61 -102 0
-95 -68 0
-78 -102 0
-95 -85 0
-11 -30 0
-28 -13 0
-11 -47 0
-45 -13 0
-11 -64 0
-62 -13 0
-11 -81 0
-79 -13 0
-11 -98 0
-96 -13 0
-28 -47 0
-45 -30 0
-28 -64 0
-62 -30 0
-28 -81 0
-79 -30 0
-28 -98 0
-96 -30 0
-45 -64 0
-62 -47 0
-45 -81 0
-79 -47 0
-45 -98 0
-96 -47 0
-62 -81 0
-79 -64 0
-62 -98 0
-96 -64 0
-79 -98 0
-96 -81 0
-11 -31 0
-28 -14 0
-11 -48 0
-45 -14 0
-11 -65 0
-62 -14 0
-11 -82 0
-79 -14 0
-11 -99 0
-96 -14 0
-28 -48 0
-45 -31 0
-28 -65 0
-62 -31 0
-28 -82 0
-79 -31 0
-28 -99 0
-96 -31 0
-45 -65 0
-62 -48 0
-45 -82 0
-79 -48 0
-45 -99 0
-96 -48 0
-62 -82 0
-79 -65 0
-62 -99 0
-96 -65 0
-79 -99 0
-96 -82 0
-12 -30 0
-29 -13 0
-12 -47 0
-46 -13 0
-12 -64 0
-63 -13 0
-12 -81 0
-80 -13 0
-12 -98 0
-97 -13 0
-29 -47 0
-46 -30 0
-29 -64 0
-63 -30 0
-29 -81 0
-80 -30 0
-29 -98 0
-97 -30 0
-46 -64 0
-63 -47 0
-46 -81 0
-80 -47 0
-46 -98 0
-97 -47 0
-63 -81 0
-80 -64 0
-63 -98 0
-97 -64 0
-80 -98 0
-97 -81 0
-12 -33 0
-29 -16 0
-12 -50 0
-46 -16 0
-12 -67 0
-63 -16 0
-12 -84 0
-80 -16 0
-12 -101 0
-97 -16 0
-29 -50 0
-46 -33 0
-29 -67 0
-63 -33 0
-29 -84 0
-80 -33 0
-29 -101 0
-97 -33 0
-46 -67 0
-63 -50 0
-46 -84 0
-80 -50 0
-46 -101 0
-97 -50 0
-63 -84 0
-80 -67 0
-63 -101 0
-97 -67 0
-80 -101 0
-97 -84 0
-14 -34 0
-31 -17 0
-14 -51 0
-48 -17 0
-14 -68 0
-65 -17 0
-14 -85 0
-82 -17 0
-14 -102 0
-99 -17 0
-31 -51 0
-48 -34 0
-31 -68 0
-65 -34 0
-31 -85 0
-82 -34 0
-31 -102 0
-99 -34 0
-48 -68 0
-65 -51 0
-48 -85 0
-82 -51 0
-48 -102 0
-99 -51 0
-65 -85 0
-82 -68 0
-65 -102 0
-99 -68 0
-82 -102 0
-99 -85 0
-15 -33 0
-32 -16 0
-15 -50 0
-49 -16 0
-15 -67 0
-66 -16 0
-15 -84 0
-83 -16 0
-15 -101 0
-100 -16 0
-32 -50 0
-49 -33 0
-32 -67 0
-66 -33 0
-32 -84 0
-83 -33 0
-32 -101 0
-100 -33 0
-49 -67 0
-66 -50 0
-49 -84 0
-83 -50 0
-49 -101 0
-100 -50 0
-66 -84 0
-83 -67 0
-66 -101 0
-100 -67 0
-83 -101 0
-100 -84 0
