sat_in/bonus/30.wcnf
p wcnf 17 68 18
1 -1 0
1 -2 0
1 -3 0
1 -4 0
1 -5 0
1 -6 0
1 -7 0
1 -8 0
1 -9 0
1 -10 0
1 -11 0
1 -12 0
1 -13 0
1 -14 0
1 -15 0
1 -16 0
1 -17 0
18 1 2 0
18 1 5 0
18 1 6 0
18 1 7 0
18 1 16 0
18 1 17 0
18 2 4 0
18 2 8 0
18 2 9 0
18 2 11 0
18 2 13 0
18 2 16 0
18 3 4 0
18 3 6 0
18 3 10 0
18 3 15 0
18 3 16 0
18 3 17 0
18 4 6 0
18 4 9 0
18 4 12 0
18 4 14 0
18 5 6 0
18 5 9 0
18 5 10 0
18 5 13 0
18 5 15 0
18 5 16 0
18 5 17 0
18 6 7 0
18 6 9 0
18 6 12 0
18 7 13 0
18 7 16 0
18 8 10 0
18 8 12 0
18 8 14 0
18 8 15 0
18 8 16 0
18 9 17 0
18 10 11 0
18 10 12 0
18 10 14 0
18 10 16 0
18 10 17 0
18 11 13 0
18 11 14 0
18 12 13 0
18 12 16 0
18 14 17 0
18 15 16 0
